25
4 0 9
4 1 8
4 2 15
5 0 13
5 1 13
5 4 2
6 3 16
6 4 8
7 2 9
7 5 12
7 6 18
8 2 11
8 3 10
8 4 14
8 5 11
8 7 20
9 0 6
9 2 5
9 3 21
9 4 16
9 6 8
9 8 25
10 0 6
10 1 25
10 2 3
10 7 18
10 8 22
10 9 15
11 0 10
11 4 16
11 6 5
11 7 7
12 5 20
12 6 8
12 8 2
12 10 2
13 1 22
13 2 11
13 3 20
13 7 17
13 8 24
14 0 4
14 3 18
14 4 16
14 6 8
14 8 22
14 10 13
14 13 23
15 2 20
15 5 24
15 8 17
15 9 2
15 10 21
15 11 7
15 12 8
16 0 10
16 1 1
16 2 3
16 6 12
16 7 6
16 9 6
16 10 3
16 11 16
16 14 19
16 15 23
17 1 9
17 5 6
17 6 9
17 7 13
17 9 10
17 10 11
17 11 25
17 12 12
17 13 15
17 15 13
17 16 17
18 1 9
18 3 4
18 4 25
18 9 17
18 14 4
18 17 16
19 1 16
19 3 12
19 4 16
19 5 11
19 6 25
19 7 14
19 8 14
19 10 10
19 13 5
19 14 25
19 17 1
20 1 3
20 2 1
20 5 15
20 6 11
20 9 2
20 10 10
20 12 3
20 14 25
20 16 3
20 19 22
21 0 4
21 1 13
21 4 17
21 7 17
21 15 21
21 16 18
21 20 10
22 1 2
22 2 5
22 4 1
22 9 4
22 13 23
22 14 23
22 15 12
22 20 22
23 0 11
23 1 23
23 4 22
23 7 15
23 9 1
23 10 11
23 11 9
23 13 9
23 14 1
23 15 2
24 1 21
24 7 10
24 8 6
24 12 12
24 14 25
24 15 3
24 17 8
24 18 9
24 19 3
24 20 13
24 21 21
24 23 15
